(set-option :produce-models true)
(set-logic QF_UF)
(declare-fun p8() Bool)
(declare-fun p39() Bool)
(declare-fun p35() Bool)
(declare-fun p14() Bool)
(declare-fun p26() Bool)
(declare-fun p37() Bool)
(declare-fun p13() Bool)
(declare-fun p17() Bool)
(declare-fun p9() Bool)
(declare-fun p27() Bool)
(declare-fun p5() Bool)
(declare-fun p3() Bool)
(declare-fun p32() Bool)
(declare-fun p22() Bool)
(declare-fun p29() Bool)
(declare-fun p18() Bool)
(declare-fun p15() Bool)
(declare-fun p7() Bool)
(declare-fun p12() Bool)
(declare-fun p19() Bool)
(declare-fun p23() Bool)
(declare-fun p1() Bool)
(declare-fun p2() Bool)
(declare-fun p16() Bool)
(declare-fun p20() Bool)
(declare-fun p30() Bool)
(declare-fun p31() Bool)
(declare-fun p11() Bool)
(declare-fun p36() Bool)
(declare-fun p0() Bool)
(declare-fun p21() Bool)
(declare-fun p6() Bool)
(declare-fun p4() Bool)
(declare-fun p34() Bool)
(declare-fun p24() Bool)
(declare-fun p10() Bool)
(declare-fun p28() Bool)
(declare-fun p38() Bool)
(declare-fun p25() Bool)
(declare-fun p33() Bool)
(assert
(and (or (not p8) p39 (not p35)) (or (not p14) p26 (not p35)) (or (not p37) p13 (not p17)) (or p9 p27 p26) (or (not p5) p3 (not p32)) (or (not p27) p22 (not p29)) (or (not p35) (not p39) p18) (or p15 p7 p12) (or p19 (not p23) p17) (or p13 (not p3) (not p5)) (or (not p1) p29 p2) (or p16 (not p3) (not p20)) (or p30 p37 p18) (or p23 (not p23) p17) (or (not p9) p19 p31) (or p16 p16 p11) (or p36 (not p17) (not p22)) (or p36 p1 p9) (or (not p3) (not p11) (not p17)) (or p27 (not p23) (not p1)) (or (not p3) p39 (not p0)) (or p21 (not p14) (not p36)) (or (not p1) (not p14) (not p39)) (or (not p6) (not p13) (not p19)) (or p36 p36 (not p0)) (or (not p12) p37 p4) (or p1 p4 (not p34)) (or p17 (not p19) (not p4)) (or p11 p2 p12) (or p35 p24 (not p23)) (or (not p19) (not p14) (not p14)) (or (not p5) (not p32) p29) (or p6 (not p30) p23) (or (not p21) (not p32) p26) (or p10 (not p20) (not p28)) (or p15 p4 p10) (or (not p1) (not p4) p15) (or (not p39) (not p3) p11) (or (not p32) p17 (not p6)) (or p38 p26 p34) (or p12 (not p27) (not p7)) (or p36 p28 p10) (or p3 p36 p18) (or p22 p34 (not p10)) (or (not p35) p35 p13) (or p27 p30 (not p3)) (or p4 p25 (not p0)) (or (not p1) p17 (not p7)) (or (not p28) p26 (not p21)) (or p5 p15 (not p11)) (or p22 p38 (not p7)) (or (not p14) p39 p6) (or p32 p6 (not p36)) (or (not p24) (not p5) p14) (or (not p19) p17 (not p10)) (or (not p9) (not p28) (not p1)) (or (not p24) (not p21) (not p24)) (or p26 p8 (not p18)) (or p18 (not p38) (not p32)) (or (not p23) p30 (not p32)) (or (not p15) (not p34) p4) (or p19 p28 (not p10)) (or (not p22) (not p37) (not p1)) (or (not p20) (not p2) p10) (or (not p0) p16 (not p17)) (or p35 (not p16) (not p18)) (or (not p1) (not p17) (not p21)) (or p27 (not p29) (not p30)) (or p14 p33 p30) (or p28 (not p16) (not p27)) (or p30 p37 (not p15)) (or p33 (not p15) p19) (or (not p32) p8 p26) (or (not p28) (not p3) p35) (or (not p36) p24 p39) (or (not p22) (not p28) p16) (or (not p31) (not p34) (not p32)) (or (not p10) (not p18) p19) (or p38 (not p25) (not p37)) (or p25 (not p0) p32) (or (not p23) p37 p8) (or (not p19) (not p5) (not p4)) (or p16 p13 (not p18)) (or p30 p21 p37) (or p19 p7 (not p22)) (or (not p17) (not p11) p32) (or p28 (not p28) p16) (or p31 p35 p32) (or (not p5) p31 (not p19)) (or (not p8) (not p22) p25) (or (not p27) (not p27) (not p34)) (or (not p20) p3 (not p27)) (or p9 p1 (not p17)) (or p37 (not p17) p25) (or p7 (not p20) p31) (or (not p16) (not p32) p18) (or (not p10) (not p3) (not p27)) (or p12 (not p31) p15) (or (not p13) (not p33) (not p16)) (or (not p10) p19 p36) (or (not p30) (not p20) (not p2)) (or (not p21) p1 p2) (or p32 p15 p1) (or (not p28) (not p19) (not p2)) (or (not p12) (not p29) p4) (or (not p2) p20 (not p12)) (or (not p34) p6 p13) (or p3 p39 (not p18)) (or p22 p32 p30) (or (not p33) p4 (not p12)) (or (not p12) (not p38) p34) (or p36 (not p16) (not p3)) (or p9 (not p22) p10) (or (not p26) p32 p8) (or (not p13) (not p20) p36) (or p31 (not p14) (not p20)) (or (not p24) p13 (not p3)) (or (not p20) p28 (not p30)) (or p7 (not p20) p22) (or p10 (not p6) (not p35)) (or (not p39) (not p6) p20) (or (not p1) (not p29) (not p7)) (or (not p5) p0 (not p3)) (or p5 p29 (not p39)) (or p4 p12 p8) (or p3 (not p36) p32) (or p25 p38 (not p3)) (or p5 (not p29) (not p2)) (or (not p34) p9 (not p11)) (or p11 p26 (not p5)) (or p2 (not p31) p33) (or p23 p18 (not p15)) (or p15 p4 p7) (or (not p5) (not p27) p19) (or (not p4) (not p27) p17) (or (not p35) (not p24) (not p28)) (or p36 p4 p10) (or (not p2) (not p27) p9) (or p8 (not p17) (not p23)) (or p26 p37 (not p27)) (or (not p28) (not p1) (not p28)) (or p26 p26 (not p11)) (or (not p34) (not p20) (not p12)) (or (not p30) (not p13) p11) (or p13 (not p0) (not p14)) (or p13 (not p13) (not p20)) (or (not p33) p8 p2) (or (not p36) p38 (not p6)) (or p19 (not p36) (not p14)) (or (not p13) (not p18) p29) (or (not p26) (not p27) (not p23)) (or (not p16) (not p17) p14) (or (not p19) p5 p22) (or p35 p39 p39) (or (not p6) (not p17) (not p30)) (or (not p21) (not p18) (not p1)) (or (not p20) p24 p12) (or (not p11) (not p24) (not p2)) (or p26 (not p7) (not p17)) (or p7 (not p29) (not p6)) (or p1 p7 (not p11)) (or p5 (not p27) (not p9)) (or p5 p32 (not p35)) (or p31 p6 (not p34)) (or p19 (not p34) (not p8)) (or (not p10) (not p10) (not p27)) (or (not p4) p13 p2) (or (not p34) (not p28) p28) (or p27 p27 (not p32)) (or (not p16) p3 (not p39)) (or (not p18) p30 p10))
)
(check-sat)
(get-model)
